NAME        
ROWS
 N  Obj     
 L  r0      
 L  r1      
 L  r2      
 L  r3      
 L  r4      
 L  r5      
 L  r6      
 L  r7      
 L  r8      
 L  r9      
 L  r10     
 L  r11     
 L  r12     
 L  r13     
 L  r14     
COLUMNS
    x[1]      Obj       -52.3261655315363
    x[1]      r0        -2
    x[1]      r1        -1
    x[1]      r2        -1
    x[1]      r3        -1
    x[1]      r4        -1
    x[2]      Obj       -40.5857349245861
    x[2]      r1        -1
    x[2]      r5        -2
    x[2]      r6        -1
    x[2]      r7        -1
    x[2]      r8        -1
    x[3]      Obj       -38.0713002868966
    x[3]      r2        -1
    x[3]      r6        -1
    x[3]      r9        -2
    x[3]      r10       -1
    x[3]      r11       -1
    x[4]      Obj       -45.9381039617941
    x[4]      r3        -1
    x[4]      r7        -1
    x[4]      r10       -1
    x[4]      r12       -2
    x[4]      r13       -1
    x[5]      Obj       -38.0417798577061
    x[5]      r4        -1
    x[5]      r8        -1
    x[5]      r11       -1
    x[5]      r13       -1
    x[5]      r14       -2
RHS
    RHS_V     Obj       -127.274767880806
    RHS_V     r0        -2.70805020110221
    RHS_V     r1        -2.99573227355399
    RHS_V     r2        -2.07944154167984
    RHS_V     r3        -2.99573227355399
    RHS_V     r4        -2.30258509299405
    RHS_V     r5        -1.6094379124341
    RHS_V     r6        -2.83321334405622
    RHS_V     r7        -1.09861228866811
    RHS_V     r8        -1.6094379124341
    RHS_V     r9        -1.38629436111989
    RHS_V     r10       -1.6094379124341
    RHS_V     r11       -1.6094379124341
    RHS_V     r12       -2.89037175789616
    RHS_V     r13       -2.89037175789616
    RHS_V     r14       -1.09861228866811
BOUNDS
 FR BOUND     x[1]    
 FR BOUND     x[2]    
 FR BOUND     x[3]    
 FR BOUND     x[4]    
 FR BOUND     x[5]    
QUADOBJ
    x[1]      x[1]      24
    x[1]      x[2]      4
    x[1]      x[3]      4
    x[1]      x[4]      4
    x[1]      x[5]      4
    x[2]      x[2]      24
    x[2]      x[3]      4
    x[2]      x[4]      4
    x[2]      x[5]      4
    x[3]      x[3]      24
    x[3]      x[4]      4
    x[3]      x[5]      4
    x[4]      x[4]      24
    x[4]      x[5]      4
    x[5]      x[5]      24
ENDATA
